Route #1: 46 26 41 16 37 1 35
Route #2: 23 11 42 40 3 17
Route #3: 18 21 34 7 15 49
Route #4: 48 5 30 8 14
Route #5: 24 38 36 47 33
Route #6: 25 10 12 32 9
Route #7: 43 27 19 31 45
Route #8: 50 44 29 22 28 2
Route #9: 20 13 6 4 39
Cost 10396336.000000